CPXPARAM_Read_DataCheck                          1
Found incumbent of value 0.000000 after 0.00 sec. (0.26 ticks)
Tried aggregator 1 time.
MIP Presolve modified 1 coefficients.
Reduced MIP has 1033 rows, 10010 columns, and 50034 nonzeros.
Reduced MIP has 10010 binaries, 0 generals, 0 SOSs, and 0 indicators.
Presolve time = 0.03 sec. (19.58 ticks)
Tried aggregator 1 time.
Reduced MIP has 1033 rows, 10010 columns, and 50034 nonzeros.
Reduced MIP has 10010 binaries, 0 generals, 0 SOSs, and 0 indicators.
Presolve time = 0.05 sec. (23.32 ticks)
Probing time = 0.02 sec. (7.34 ticks)
Clique table members: 33097.
MIP emphasis: balance optimality and feasibility.
MIP search method: dynamic search.
Parallel mode: deterministic, using up to 4 threads.
Root relaxation solution time = 0.11 sec. (122.38 ticks)

        Nodes                                         Cuts/
   Node  Left     Objective  IInf  Best Integer    Best Bound    ItCnt     Gap

*     0+    0                            0.0000    61823.0000              --- 
*     0+    0                         8768.0000    61823.0000           605.10%
*     0+    0                         9532.0000    61823.0000           548.58%
*     0+    0                         9887.0000    61823.0000           525.30%
      0     0    17601.9787    12     9887.0000    17601.9787     1797   78.03%
*     0+    0                        12418.0000    17601.9787            41.75%
      0     0    15473.6648   437    12418.0000     Cuts: 358     2904   24.61%
*     0+    0                        13041.0000    15473.6648            18.65%
      0     0    14905.1228   730    13041.0000     Cuts: 358     3750    9.79%
      0     0        cutoff          13041.0000    13041.0000     4690    0.00%
Elapsed time = 2.56 sec. (1441.13 ticks, tree = 0.01 MB, solutions = 6)

Clique cuts applied:  736
Cover cuts applied:  6
Implied bound cuts applied:  5
Mixed integer rounding cuts applied:  18
Zero-half cuts applied:  6

Root node processing (before b&c):
  Real time             =    2.56 sec. (1442.07 ticks)
Parallel b&c, 4 threads:
  Real time             =    0.00 sec. (0.00 ticks)
  Sync time (average)   =    0.00 sec.
  Wait time (average)   =    0.00 sec.
                          ------------
Total (root+branch&cut) =    2.56 sec. (1442.07 ticks)
